(declare-fun temp750_2 () (_ BitVec 64))
(declare-fun temp750_1 () (_ BitVec 64))
(declare-fun temp750_3 () (_ BitVec 64))
(declare-fun var1969928 () (_ BitVec 64))
(declare-fun temp750_5 () (_ BitVec 64))
(declare-fun temp750_4 () (_ BitVec 64))
(declare-fun temp750_6 () (_ BitVec 64))
(declare-fun var4463028 () (_ BitVec 64))
(declare-fun temp750_7 () (_ BitVec 64))
(declare-fun var5506870 () (_ BitVec 64))
(declare-fun var5705948 () (_ BitVec 64))
(declare-fun temp750_8 () (_ BitVec 64))
(declare-fun var6490091 () (_ BitVec 64))
(declare-fun ARGNAME_input_NAMEEND_DIM () (_ BitVec 64))
(declare-fun temp750_10 () (_ BitVec 64))
(declare-fun temp750_9 () (_ BitVec 64))
(declare-fun var6556535 () (_ BitVec 64))
(declare-fun temp750_11 () (_ BitVec 64))
(declare-fun var6622984 () (_ BitVec 64))
(declare-fun var6688529 () (_ BitVec 64))
(declare-fun temp750_13 () (_ BitVec 64))
(declare-fun temp750_12 () (_ BitVec 64))
(declare-fun temp750_14 () (_ BitVec 64))
(declare-fun var6885111 () (_ BitVec 64))
(declare-fun temp750_15 () (_ BitVec 64))
(declare-fun var6490152 () (_ BitVec 64))
(declare-fun temp750_16 () (_ BitVec 64))
(declare-fun var6490194 () (_ BitVec 64))
(declare-fun temp750_18 () (_ BitVec 64))
(declare-fun temp750_17 () (_ BitVec 64))
(declare-fun temp750_19 () (_ BitVec 64))
(declare-fun var7474168 () (_ BitVec 64))
(declare-fun temp750_20 () (_ BitVec 64))
(declare-fun var7474206 () (_ BitVec 64))
(declare-fun temp750_21 () (_ BitVec 64))
(declare-fun var6490139 () (_ BitVec 64))
(declare-fun var6490138 () (_ BitVec 64))
(declare-fun temp750_22 () (_ BitVec 64))
(declare-fun var6490143 () (_ BitVec 64))
(declare-fun temp750_23 () (_ BitVec 64))
(declare-fun var6490145 () (_ BitVec 64))
(declare-fun temp750_24 () (_ BitVec 64))
(declare-fun temp750_25 () (_ BitVec 64))
(declare-fun var8653978 () (_ BitVec 64))
(declare-fun temp750_26 () (_ BitVec 64))
(declare-fun var9046222 () (_ BitVec 64))
(declare-fun temp750_27 () (_ BitVec 64))
(declare-fun temp750_28 () (_ BitVec 64))
(declare-fun var9046268 () (_ BitVec 64))
(declare-fun var9046299 () (_ BitVec 64))
(declare-fun var9046220 () (_ BitVec 64))
(declare-fun var205360 () (_ BitVec 64))
(declare-fun var205361 () (_ BitVec 64))
(declare-fun temp750_29 () (_ BitVec 64))
(declare-fun var10953060 () (_ BitVec 64))
(declare-fun var10953101 () (_ BitVec 64))
(declare-fun temp750_30 () (_ BitVec 64))
(declare-fun var11145861 () (_ BitVec 64))
(declare-fun var11145865 () (_ BitVec 64))
(declare-fun temp750_31 () (_ BitVec 64))
(declare-fun var11145866 () (_ BitVec 64))
(assert (= temp750_2 #x0000000000000000))
(assert (= temp750_1 temp750_2))
(assert (= temp750_3 #x0000000000000005))
(assert (= var1969928 temp750_3))
(assert (= temp750_5 #x0000000000000000))
(assert (= temp750_4 temp750_5))
(assert (= temp750_6 #x0000000000000000))
(assert (= var4463028 temp750_6))
(assert (= temp750_7 #x0000000000000000))
(assert (= var5506870 temp750_7))
(assert (= var5705948 var5506870))
(assert (= temp750_8 #x0000000000000001))
(assert (= var6490091 (bvshl ARGNAME_input_NAMEEND_DIM temp750_8)))
(assert (= temp750_10 #x0000000000000000))
(assert (= temp750_9 temp750_10))
(assert (= var6556535 var6490091))
(assert (= temp750_11 #x0000000000000005))
(assert (= var6622984 temp750_11))
(assert (= var6688529 var6556535))
(assert (= temp750_13 #x0000000000000000))
(assert (= temp750_12 temp750_13))
(assert (= temp750_14 #x0000000000000000))
(assert (= var6885111 temp750_14))
(assert (= temp750_15 #x0000000000000000))
(assert (= var6490152 temp750_15))
(assert (= temp750_16 #x0000000000000001))
(assert (= var6490194 temp750_16))
(assert (= temp750_18 #x0000000000000000))
(assert (= temp750_17 temp750_18))
(assert (= temp750_19 #x0000000000000001))
(assert (= var7474168 temp750_19))
(assert (= temp750_20 #x0000000000000000))
(assert (= var7474206 temp750_20))
(assert (= temp750_21 #x0000000000000000))
(assert (= var7474206 temp750_21))
(assert (= var6490139 var6490194))
(assert (= var6490138 var6490139))
(assert (= temp750_22 #x0000000000000001))
(assert (= var6490143 (bvand var6490138 temp750_22)))
(assert (= temp750_23 #x0000000000000000))
(assert (= var6490145
   (ite (= var6490143 temp750_23) #x0000000000000001 #x0000000000000000)))
(assert (= temp750_24 #x0000000000000000))
(assert (= var6490145 temp750_24))
(assert (= temp750_25 #x0000000000000000))
(assert (= var8653978 temp750_25))
(assert (= temp750_26 #x0000000000000000))
(assert (= var9046222 temp750_26))
(assert (= temp750_27 #x0000000000000002))
(assert (= temp750_28 #x0000000000000000))
(assert (= var9046268 (ite (= var9046222 #x0000000000000001) temp750_27 temp750_28)))
(assert (= var9046299 var9046268))
(assert (= var9046220 var9046299))
(assert (= var205360 var9046220))
(assert (= var205361 var205360))
(assert (= temp750_29 #x0000000000000000))
(assert (= var10953060 temp750_29))
(assert (= var10953101 var10953060))
(assert (= temp750_30 #x0000000000000006))
(assert (= var11145861 temp750_30))
(assert (= var11145865 var205361))
(assert (= temp750_31 #x0000000000000000))
(assert (= var11145866 temp750_31))
(model-add temp750_2 () (_ BitVec 64) #x0000000000000000)
(model-add temp750_1 () (_ BitVec 64) #x0000000000000000)
(model-add temp750_3 () (_ BitVec 64) #x0000000000000005)
(model-add var1969928 () (_ BitVec 64) #x0000000000000005)
(model-add temp750_5 () (_ BitVec 64) #x0000000000000000)
(model-add temp750_4 () (_ BitVec 64) #x0000000000000000)
(model-add temp750_6 () (_ BitVec 64) #x0000000000000000)
(model-add var4463028 () (_ BitVec 64) #x0000000000000000)
(model-add temp750_7 () (_ BitVec 64) #x0000000000000000)
(model-add var5506870 () (_ BitVec 64) #x0000000000000000)
(model-add var5705948 () (_ BitVec 64) #x0000000000000000)
(model-add temp750_8 () (_ BitVec 64) #x0000000000000001)
(model-add var6490091
           ()
           (_ BitVec 64)
           (concat ((_ extract 62 0) ARGNAME_input_NAMEEND_DIM) #b0))
(model-add temp750_10 () (_ BitVec 64) #x0000000000000000)
(model-add temp750_9 () (_ BitVec 64) #x0000000000000000)
(model-add var6556535
           ()
           (_ BitVec 64)
           (concat ((_ extract 62 0) ARGNAME_input_NAMEEND_DIM) #b0))
(model-add temp750_11 () (_ BitVec 64) #x0000000000000005)
(model-add var6622984 () (_ BitVec 64) #x0000000000000005)
(model-add var6688529
           ()
           (_ BitVec 64)
           (concat ((_ extract 62 0) ARGNAME_input_NAMEEND_DIM) #b0))
(model-add temp750_13 () (_ BitVec 64) #x0000000000000000)
(model-add temp750_12 () (_ BitVec 64) #x0000000000000000)
(model-add temp750_14 () (_ BitVec 64) #x0000000000000000)
(model-add var6885111 () (_ BitVec 64) #x0000000000000000)
(model-add temp750_15 () (_ BitVec 64) #x0000000000000000)
(model-add var6490152 () (_ BitVec 64) #x0000000000000000)
(model-add temp750_16 () (_ BitVec 64) #x0000000000000001)
(model-add var6490194 () (_ BitVec 64) #x0000000000000001)
(model-add temp750_18 () (_ BitVec 64) #x0000000000000000)
(model-add temp750_17 () (_ BitVec 64) #x0000000000000000)
(model-add temp750_19 () (_ BitVec 64) #x0000000000000001)
(model-add var7474168 () (_ BitVec 64) #x0000000000000001)
(model-add temp750_20 () (_ BitVec 64) #x0000000000000000)
(model-add var7474206 () (_ BitVec 64) #x0000000000000000)
(model-add temp750_21 () (_ BitVec 64) #x0000000000000000)





